param ncomp := 24;
param neq := 12;
param :          a        b      :=
        1      0.0693   44.094
        2      0.0577   58.12
        3      0.05     58.12
        4      0.20    137.4
        5      0.26    120.9
        6      0.55    170.9
        7      0.06     62.501
        8      0.10     84.94
        9      0.12    133.425
       10      0.18     82.507
       11      0.10     46.07
       12      0.09     60.097
       13      0.0693   44.094
       14      0.0577   58.12
       15      0.05     58.12
       16      0.20    137.4
       17      0.26    120.9
       18      0.55    170.9
       19      0.06     62.501
       20      0.10     84.94
       21      0.12    133.425
       22      0.18     82.507
       23      0.10     46.07
       24      0.09     60.097 ;                                     ;

param:            c       d      :=
        1     123.7    31.224
        2      31.7    36.12
        3      45.7    34.784
        4      14.7    92.7
        5      84.7    82.7
        6      27.7    91.6
        7      49.7    58.708
        8       7.1    82.7
        9       2.1    80.8
       10      17.7    64.517
       11       0.85   49.4
       12       0.64   49.1  ;


param f1 := 0.7302;
param f2 := 530;
param f3 := 14.7;
param f4 := 40;

var:       x        :=
     1    0.04
     2    0.04
     3    0.04
     4    0.04
     5    0.04
     6    0.04
     7    0.04
     8    0.04
     9    0.04
    10    0.04
    11    0.04
    12    0.04
    13    0.04
    14    0.04
    15    0.04
    16    0.04
    17    0.04
    18    0.04
    19    0.04
    20    0.04
    21    0.04
    22    0.04
    23    0.04
    24    0.04;

